c This is a CNF SAT formula in the DIMACS CNF format,
c produced with the bc2cnf translator by Tommi Junttila;
c see http://users.ics.aalto.fi/tjunttil/circuits/index.html
c phi_Gamma <-> 1
c phi_T_transitions <-> 1
c phi_T <-> 1
c phi_sim_leaves <-> 1
c phi_sim_transition <-> 1
c phi_sim <-> 1
c FORMULA <-> 1
c pi_0_4 <-> 2
c pi_0_8 <-> 2
c pi_0_9 <-> 2
c pi_0_6 <-> 13
c pi_0_7 <-> 13
c pi_0_5 <-> 24
c pi_0_2 <-> 26
c pi_0_3 <-> 26
c pi_0_1 <-> 32
c pi_0_0 <-> 43
c alp_Class_2_0 <-> 49
c alp_Class_1_0 <-> 49
c alp_Class_0_0 <-> 49
c alp_Class_2_1 <-> 49
c alp_Class_1_1 <-> 49
c alp_Class_0_1 <-> 49
c alp_Class_3_2 <-> 49
c alp_Class_2_2 <-> 49
c alp_Class_0_2 <-> 49
c alp_Class_3_3 <-> 49
c alp_Class_2_3 <-> 49
c alp_Class_0_3 <-> 49
c alp_Class_3_4 <-> 49
c alp_Class_2_4 <-> 49
c alp_Class_0_4 <-> 49
c alp_Class_3_5 <-> 49
c alp_Class_2_5 <-> 49
c alp_Class_1_5 <-> 49
c alp_Class_3_6 <-> 49
c alp_Class_2_6 <-> 49
c alp_Class_1_6 <-> 49
c alp_Class_3_7 <-> 49
c alp_Class_2_7 <-> 49
c alp_Class_1_7 <-> 49
c alp_Class_3_8 <-> 49
c alp_Class_2_8 <-> 49
c alp_Class_0_8 <-> 49
c alp_Class_3_9 <-> 49
c alp_Class_2_9 <-> 49
c alp_Class_0_9 <-> 49
c alp_Class_0_5 <-> 50
c alp_Class_0_6 <-> 50
c alp_Class_0_7 <-> 50
c Class_P0 <-> 50
c alp_Class_1_2 <-> 51
c alp_Class_1_3 <-> 51
c alp_Class_1_4 <-> 51
c alp_Class_1_8 <-> 51
c alp_Class_1_9 <-> 51
c Class_P100 <-> 51
c alp_Class_3_0 <-> 52
c alp_Class_3_1 <-> 52
c Class_P300 <-> 52
c phi_T_transitions_consistency <-> 53
c tau_0_3_Class_3 <-> 100
c tau_0_3_Class_2 <-> 102
c tau_0_3_Class_1 <-> 103
c tau_0_3_Class_0 <-> 104
c tau_0_2_Class_3 <-> 117
c tau_0_2_Class_2 <-> 119
c tau_0_2_Class_1 <-> 120
c tau_0_2_Class_0 <-> 121
c tau_0_1_Class_3 <-> 122
c tau_0_1_Class_2 <-> 123
c tau_0_1_Class_1 <-> 124
c tau_0_1_Class_0 <-> 125
c tau_0_0_Class_3 <-> 126
c tau_0_0_Class_2 <-> 127
c tau_0_0_Class_1 <-> 128
c tau_0_0_Class_0 <-> 129
c phi_T_feature_det <-> 130
c lam_0_median_income <-> 133
c lam_0_population <-> 134
p wcnf 134 355 11  
11 1 0
11 2 -3 0
11 2 -8 0
11 -2 8 3 0
1 2 0
11 -3 4 0
11 -3 133 0
11 3 -133 -4 0
11 -4 -122 0
11 -4 5 0
11 4 -5 122 0
11 -5 -123 0
11 -5 6 0
11 5 -6 123 0
11 -6 7 0
11 -6 -125 0
11 6 125 -7 0
11 7 124 0
11 7 -51 0
11 -7 51 -124 0
11 -8 9 0
11 -8 134 0
11 8 -134 -9 0
11 -9 -100 0
11 -9 10 0
11 9 -10 100 0
11 -10 -102 0
11 -10 11 0
11 10 -11 102 0
11 -11 12 0
11 -11 -104 0
11 11 104 -12 0
11 12 103 0
11 12 -51 0
11 -12 51 -103 0
11 13 -14 0
11 13 -19 0
11 -13 19 14 0
1 13 0
11 -14 15 0
11 -14 133 0
11 14 -133 -15 0
11 -15 -122 0
11 -15 16 0
11 15 -16 122 0
11 -16 -123 0
11 -16 17 0
11 16 -17 123 0
11 -17 -124 0
11 -17 18 0
11 17 -18 124 0
11 18 125 0
11 18 -50 0
11 -18 50 -125 0
11 -19 20 0
11 -19 134 0
11 19 -134 -20 0
11 -20 -126 0
11 -20 21 0
11 20 -21 126 0
11 -21 -127 0
11 -21 22 0
11 21 -22 127 0
11 -22 -128 0
11 -22 23 0
11 22 -23 128 0
11 23 129 0
11 23 -50 0
11 -23 50 -129 0
11 24 -19 0
11 24 -25 0
11 -24 25 19 0
1 24 0
11 -25 20 0
11 -25 133 0
11 25 -133 -20 0
11 26 -8 0
11 26 -27 0
11 -26 27 8 0
1 26 0
11 -27 28 0
11 -27 133 0
11 27 -133 -28 0
11 -28 -126 0
11 -28 29 0
11 28 -29 126 0
11 -29 -127 0
11 -29 30 0
11 29 -30 127 0
11 -30 -129 0
11 -30 31 0
11 30 -31 129 0
11 31 128 0
11 31 -51 0
11 -31 51 -128 0
11 32 -33 0
11 32 -38 0
11 -32 38 33 0
1 32 0
11 -33 34 0
11 -33 133 0
11 33 -133 -34 0
11 -34 35 0
11 -34 36 0
11 34 -36 -35 0
11 35 126 0
11 35 -52 0
11 -35 52 -126 0
11 -36 -127 0
11 -36 37 0
11 36 -37 127 0
11 -37 -128 0
11 -37 -129 0
11 37 129 128 0
11 -38 39 0
11 -38 134 0
11 38 -134 -39 0
11 -39 40 0
11 -39 41 0
11 39 -41 -40 0
11 40 117 0
11 40 -52 0
11 -40 52 -117 0
11 -41 -119 0
11 -41 42 0
11 41 -42 119 0
11 -42 -120 0
11 -42 -121 0
11 42 121 120 0
11 43 -38 0
11 43 -44 0
11 -43 44 38 0
1 43 0
11 -44 45 0
11 -44 133 0
11 44 -133 -45 0
11 -45 46 0
11 -45 47 0
11 45 -47 -46 0
11 46 122 0
11 46 -52 0
11 -46 52 -122 0
11 -47 -123 0
11 -47 48 0
11 47 -48 123 0
11 -48 -124 0
11 -48 -125 0
11 48 125 124 0
11 -49 0
11 53 133 0
11 53 -54 0
11 -53 54 -133 0
11 53 0
11 -54 -100 0
11 -54 55 0
11 54 -55 100 0
11 -55 -102 0
11 -55 56 0
11 55 -56 102 0
11 -56 -103 0
11 -56 57 0
11 56 -57 103 0
11 -57 -104 0
11 -57 58 0
11 57 -58 104 0
11 -58 -117 0
11 -58 41 0
11 58 -41 117 0
11 59 133 0
11 59 -60 0
11 -59 60 -133 0
11 59 0
11 -60 61 0
11 -60 73 0
11 60 -73 -61 0
11 61 -62 0
11 61 -63 0
11 -61 63 62 0
11 -62 47 0
11 -62 122 0
11 62 -122 -47 0
11 63 -64 0
11 63 -66 0
11 -63 66 64 0
11 -64 65 0
11 -64 123 0
11 64 -123 -65 0
11 -65 -122 0
11 -65 48 0
11 65 -48 122 0
11 66 -67 0
11 66 -70 0
11 -66 70 67 0
11 -67 68 0
11 -67 124 0
11 67 -124 -68 0
11 -68 -122 0
11 -68 69 0
11 68 -69 122 0
11 -69 -123 0
11 -69 -125 0
11 69 125 123 0
11 -70 71 0
11 -70 125 0
11 70 -125 -71 0
11 -71 -122 0
11 -71 72 0
11 71 -72 122 0
11 -72 -123 0
11 -72 -124 0
11 72 124 123 0
11 73 -74 0
11 73 -75 0
11 -73 75 74 0
11 -74 36 0
11 -74 126 0
11 74 -126 -36 0
11 75 -76 0
11 75 -78 0
11 -75 78 76 0
11 -76 77 0
11 -76 127 0
11 76 -127 -77 0
11 -77 -126 0
11 -77 37 0
11 77 -37 126 0
11 78 -79 0
11 78 -82 0
11 -78 82 79 0
11 -79 80 0
11 -79 128 0
11 79 -128 -80 0
11 -80 -126 0
11 -80 81 0
11 80 -81 126 0
11 -81 -127 0
11 -81 -129 0
11 81 129 127 0
11 -82 83 0
11 -82 129 0
11 82 -129 -83 0
11 -83 -126 0
11 -83 84 0
11 83 -84 126 0
11 -84 -127 0
11 -84 -128 0
11 84 128 127 0
11 85 134 0
11 85 -86 0
11 -85 86 -134 0
11 85 0
11 -86 87 0
11 -86 105 0
11 86 -105 -87 0
11 87 -88 0
11 87 -90 0
11 -87 90 88 0
11 -88 89 0
11 -88 100 0
11 88 -100 -89 0
11 -89 -102 0
11 -89 93 0
11 89 -93 102 0
11 90 -91 0
11 90 -94 0
11 -90 94 91 0
11 -91 92 0
11 -91 102 0
11 91 -102 -92 0
11 -92 -100 0
11 -92 93 0
11 92 -93 100 0
11 -93 -103 0
11 -93 -104 0
11 93 104 103 0
11 94 -95 0
11 94 -98 0
11 -94 98 95 0
11 -95 96 0
11 -95 103 0
11 95 -103 -96 0
11 -96 -100 0
11 -96 97 0
11 96 -97 100 0
11 -97 -102 0
11 -97 -104 0
11 97 104 102 0
11 -98 99 0
11 -98 104 0
11 98 -104 -99 0
11 -99 -100 0
11 -99 101 0
11 99 -101 100 0
11 -101 -102 0
11 -101 -103 0
11 101 103 102 0
11 -105 60 0
11 -105 106 0
11 105 -106 -60 0
11 106 -107 0
11 106 -108 0
11 -106 108 107 0
11 -107 41 0
11 -107 117 0
11 107 -117 -41 0
11 108 -109 0
11 108 -111 0
11 -108 111 109 0
11 -109 110 0
11 -109 119 0
11 109 -119 -110 0
11 -110 -117 0
11 -110 42 0
11 110 -42 117 0
11 111 -112 0
11 111 -115 0
11 -111 115 112 0
11 -112 113 0
11 -112 120 0
11 112 -120 -113 0
11 -113 -117 0
11 -113 114 0
11 113 -114 117 0
11 -114 -119 0
11 -114 -121 0
11 114 121 119 0
11 -115 116 0
11 -115 121 0
11 115 -121 -116 0
11 -116 -117 0
11 -116 118 0
11 116 -118 117 0
11 -118 -119 0
11 -118 -120 0
11 118 120 119 0
11 130 -131 0
11 130 -132 0
11 -130 132 131 0
11 130 0
11 -131 -134 0
11 -131 133 0
11 131 -133 134 0
11 -132 -133 0
11 -132 134 0
11 132 -134 133 0
